HUN,8,6,365
0,3,1,30,2,11,5,11,3,22,4,19
0,29,1,15,2,29,3,24,4,21,5,6
1,18,0,23,2,2,4,15,3,25,5,9
2,3,0,17,1,9,3,24,4,21,5,11
2,28,0,3,1,11,4,16,5,7,3,16
1,8,0,12,2,18,4,16,3,12,5,27
0,11,1,4,2,20,5,29,4,1,3,3
2,28,1,29,0,16,5,26,4,29,3,22
